pair_style hybrid/overlay zero RCUT eam/fs
pair_coeff * * zero
pair_coeff * * eam/fs dir.inputs/Fe_2.eam.fs Fe