pair_style eam/fs
pair_coeff * * dir.inputs/Fe_2.eam.fs Fe