pair_style eam/fs
pair_coeff * * dir.inputs/Al.eam.fs Al