pair_style sw
pair_coeff * * dir.inputs/Si.sw Si