pair_style eam/fs
pair_coeff * * dir.inputs/Zr_2.eam.fs Zr